(set-info :source |printed by MathSAT|)
(declare-fun ite2 () Bool)
(declare-fun MayMove2 () Bool)
(declare-fun _OK_ () Bool)
(declare-fun call_sustain.s () Bool)
(declare-fun flby2 () Bool)
(declare-fun call_redge2.r () Bool)
(declare-fun start2 () Bool)
(declare-fun call_redge.flby () Bool)
(declare-fun call_fedge.call_redge.r () Bool)
(declare-fun call_fedge2.call_redge.r () Bool)
(declare-fun call_fedge.call_redge.flby () Bool)
(declare-fun stop () Bool)
(declare-fun param_MaySafelyMove () Bool)
(declare-fun param_TryToMove2 () Bool)
(declare-fun call_redge3.flby () Bool)
(declare-fun call_fedge2.f () Bool)
(declare-fun call_fedge.f () Bool)
(declare-fun MayMove1 () Bool)
(declare-fun moving () Bool)
(declare-fun call_redge4.flby () Bool)
(declare-fun start1 () Bool)
(declare-fun param_TryToMove1 () Bool)
(declare-fun flby3 () Bool)
(declare-fun call_redge.r () Bool)
(declare-fun call_sustain.flby () Bool)
(declare-fun call_redge2.flby () Bool)
(declare-fun ite () Bool)
(declare-fun call_redge3.r () Bool)
(declare-fun call_sustain.ite2 () Bool)
(declare-fun call_redge4.r () Bool)
(declare-fun call_fedge2.call_redge.flby () Bool)
(declare-fun flby () Bool)
(declare-fun call_sustain.ite () Bool)
(define-fun .def_398 () Bool (= call_redge4.flby call_redge4.r))
(define-fun .def_396 () Bool (= call_redge3.flby call_redge3.r))
(define-fun .def_394 () Bool (= call_fedge2.call_redge.flby call_fedge2.call_redge.r))
(define-fun .def_392 () Bool (= call_fedge2.f call_fedge2.call_redge.r))
(define-fun .def_389 () Bool (= call_fedge.call_redge.flby call_fedge.call_redge.r))
(define-fun .def_387 () Bool (= call_fedge.f call_fedge.call_redge.r))
(define-fun .def_384 () Bool (= call_redge2.flby call_redge2.r))
(define-fun .def_382 () Bool (= call_redge.flby call_redge.r))
(define-fun .def_380 () Bool (= call_sustain.flby call_sustain.s))
(define-fun .def_351 () Bool (not call_redge4.r))
(define-fun .def_349 () Bool (not call_redge3.r))
(define-fun .def_352 () Bool (or .def_349 .def_351))
(define-fun .def_378 () Bool (or ite2 .def_352))
(define-fun .def_375 () Bool (= moving call_sustain.s))
(define-fun .def_371 () Bool (not moving))
(define-fun .def_370 () Bool (= param_MaySafelyMove ite))
(define-fun .def_372 () Bool (or .def_370 .def_371))
(define-fun .def_369 () Bool (or ite moving))
(define-fun .def_373 () Bool (and .def_369 .def_372))
(define-fun .def_376 () Bool (and .def_373 .def_375))
(define-fun .def_365 () Bool (or call_fedge.f call_fedge2.f))
(define-fun .def_366 () Bool (= stop .def_365))
(define-fun .def_361 () Bool (= start2 call_redge2.r))
(define-fun .def_357 () Bool (= start1 call_redge.r))
(define-fun .def_353 () Bool (not .def_352))
(define-fun .def_338 () Bool (not start2))
(define-fun .def_336 () Bool (not start1))
(define-fun .def_340 () Bool (and .def_336 .def_338))
(define-fun .def_279 () Bool (not stop))
(define-fun .def_339 () Bool (and .def_279 .def_338))
(define-fun .def_341 () Bool (or .def_339 .def_340))
(define-fun .def_337 () Bool (and .def_279 .def_336))
(define-fun .def_342 () Bool (or .def_337 .def_341))
(define-fun .def_289 () Bool (and start1 start2))
(define-fun .def_334 () Bool (and stop .def_289))
(define-fun .def_335 () Bool (not .def_334))
(define-fun .def_343 () Bool (and .def_335 .def_342))
(define-fun .def_345 () Bool (and .def_343 ite))
(define-fun .def_347 () Bool (= .def_345 ite2))
(define-fun .def_354 () Bool (or .def_347 .def_353))
(define-fun .def_331 () Bool (not .def_289))
(define-fun .def_332 () Bool (or call_sustain.ite2 .def_331))
(define-fun .def_329 () Bool (= call_sustain.ite call_sustain.ite2))
(define-fun .def_330 () Bool (or .def_289 .def_329))
(define-fun .def_333 () Bool (and .def_330 .def_332))
(define-fun .def_355 () Bool (and .def_333 .def_354))
(define-fun .def_358 () Bool (and .def_355 .def_357))
(define-fun .def_325 () Bool (and param_TryToMove2 param_MaySafelyMove))
(define-fun .def_326 () Bool (= MayMove2 .def_325))
(define-fun .def_323 () Bool (= flby3 _OK_))
(define-fun .def_320 () Bool (and param_TryToMove1 param_MaySafelyMove))
(define-fun .def_321 () Bool (= MayMove1 .def_320))
(define-fun .def_324 () Bool (and .def_321 .def_323))
(define-fun .def_327 () Bool (and .def_324 .def_326))
(define-fun .def_359 () Bool (and .def_327 .def_358))
(define-fun .def_362 () Bool (and .def_359 .def_361))
(define-fun .def_367 () Bool (and .def_362 .def_366))
(define-fun .def_377 () Bool (and .def_367 .def_376))
(define-fun .def_379 () Bool (and .def_377 .def_378))
(define-fun .def_381 () Bool (and .def_379 .def_380))
(define-fun .def_383 () Bool (and .def_381 .def_382))
(define-fun .def_385 () Bool (and .def_383 .def_384))
(define-fun .def_388 () Bool (and .def_385 .def_387))
(define-fun .def_390 () Bool (and .def_388 .def_389))
(define-fun .def_393 () Bool (and .def_390 .def_392))
(define-fun .def_395 () Bool (and .def_393 .def_394))
(define-fun .def_397 () Bool (and .def_395 .def_396))
(define-fun .def_399 () Bool (and .def_397 .def_398))
(define-fun .def_317 () Bool (= param_TryToMove2 call_redge4.flby))
(define-fun .def_313 () Bool (= param_TryToMove1 call_redge3.flby))
(define-fun .def_307 () Bool (not MayMove2))
(define-fun .def_309 () Bool (= .def_307 call_fedge2.call_redge.flby))
(define-fun .def_303 () Bool (not MayMove1))
(define-fun .def_305 () Bool (= .def_303 call_fedge.call_redge.flby))
(define-fun .def_299 () Bool (and flby2 MayMove2))
(define-fun .def_301 () Bool (= .def_299 call_redge2.flby))
(define-fun .def_294 () Bool (and flby MayMove1))
(define-fun .def_296 () Bool (= .def_294 call_redge.flby))
(define-fun .def_291 () Bool (= .def_289 call_sustain.flby))
(define-fun .def_277 () Bool (not call_sustain.ite))
(define-fun .def_280 () Bool (or .def_277 .def_279))
(define-fun .def_282 () Bool (and .def_280 flby))
(define-fun .def_284 () Bool (and .def_282 flby2))
(define-fun .def_286 () Bool (and .def_284 flby3))
(define-fun .def_292 () Bool (and .def_286 .def_291))
(define-fun .def_297 () Bool (and .def_292 .def_296))
(define-fun .def_302 () Bool (and .def_297 .def_301))
(define-fun .def_306 () Bool (and .def_302 .def_305))
(define-fun .def_310 () Bool (and .def_306 .def_309))
(define-fun .def_314 () Bool (and .def_310 .def_313))
(define-fun .def_318 () Bool (and .def_314 .def_317))
(define-fun .def_400 () Bool (and .def_318 .def_399))
(assert .def_400)
